AES/1_4_4/ssaes_r1-20_c4_rw1_e4_f0_k1-20_aes_1base_box_aes_mc_bidirectional/ExperimentMinisat_r15_k12cnf_2011-11-18-104340/Result
WARNING: for repeatability, setting FPU to use double precision
============================[ Problem Statistics ]=============================
|                                                                             |
|  Number of variables:          1128                                         |
|  Number of clauses:            4969                                         |
|  Parse time:                   0.00 s                                       |
|  Eliminated clauses:           0.01 Mb                                      |
|  Simplification time:          0.00 s                                       |
|                                                                             |
=============================[ Search Statistics ]==============================
| Conflicts  |          ORIGINAL         |          LEARNT          | Progress |
|            |    Vars  Clauses Literals |    Limit  Clauses Lit/Cl |          |
================================================================================
|        100 |     780     3913    12832 |     1434      100     18 |  8.156 % |
|        250 |     780     3913    12832 |     1578      250     20 |  8.156 % |
|        475 |     780     3913    12832 |     1736      475     19 |  8.156 % |
|        812 |     780     3913    12832 |     1909      812     20 |  8.156 % |
|       1318 |     780     3913    12832 |     2100     1318     19 |  8.156 % |
|       2077 |     780     3913    12832 |     2310     2077     19 |  8.156 % |
|       3216 |     780     3913    12832 |     2541     2013     18 |  8.156 % |
|       4924 |     780     3913    12832 |     2795     2382     16 |  8.156 % |
|       7486 |     780     3913    12832 |     3075     2035     13 |  8.156 % |
|      11330 |     780     3913    12832 |     3383     2699     15 |  8.156 % |
|      17096 |     780     3913    12832 |     3721     3205     14 |  8.156 % |
|      25745 |     780     3913    12832 |     4093     2264     12 |  8.156 % |
|      38719 |     780     3913    12832 |     4502     2569     11 |  8.156 % |
|      58180 |     780     3913    12832 |     4953     3548     13 |  8.156 % |
|      87372 |     780     3913    12832 |     5448     4831     13 |  8.156 % |
===============================================================================
restarts              : 255
conflicts             : 91094          (13406 /sec)
decisions             : 101644         (0.00 % random) (14959 /sec)
propagations          : 35076624       (5162148 /sec)
conflict literals     : 1606768        (54.68 % deleted)
Memory used           : 8.00 MB
CPU time              : 6.79497 s

SATISFIABLE
